% Generated by MiniZinc 2.9.3
% Solver library: /home/icwmmarijnisse/Pumpkin/minizinc/lib
% Command line invocation: minizinc --compile --fzn ./instance.fzn --ozn ./instance.ozn --solver pumpkin ../../../../benchmarks/models/rcpsp/rcpsp_smaller.mzn ../../../../benchmarks/models/rcpsp/pack008.dzn 

predicate pumpkin_cumulative(array [int] of var int: s,array [int] of int: d,array [int] of int: r,int: b);
array [1..2] of int: X_INTRODUCED_38_ = [1,-1];
array [1..14] of int: X_INTRODUCED_40_ = [3,1,2,4,2,2,2,2,3,3,3,2,4,3];
array [1..14] of int: X_INTRODUCED_41_ = [5,2,2,5,2,3,4,5,6,6,5,3,4,3];
array [1..14] of int: X_INTRODUCED_43_ = [2,2,3,3,3,1,2,1,3,2,3,2,2,2];
array [1..14] of int: X_INTRODUCED_44_ = [3,3,1,3,3,1,1,3,2,3,2,3,2,1];
var 0..75: X_INTRODUCED_16_;
var 0..75: X_INTRODUCED_17_;
var 0..75: X_INTRODUCED_18_;
var 0..75: X_INTRODUCED_19_;
var 0..75: X_INTRODUCED_20_;
var 0..75: X_INTRODUCED_21_;
var 0..75: X_INTRODUCED_22_;
var 0..75: X_INTRODUCED_23_;
var 0..75: X_INTRODUCED_24_;
var 0..75: X_INTRODUCED_25_;
var 0..75: X_INTRODUCED_26_;
var 0..75: X_INTRODUCED_27_;
var 0..75: X_INTRODUCED_28_;
var 0..75: X_INTRODUCED_29_;
var 0..75: X_INTRODUCED_30_;
var 0..75: X_INTRODUCED_31_;
var 0..75: X_INTRODUCED_32_;
var 0..75: X_INTRODUCED_33_;
var 0..75: X_INTRODUCED_34_;
var 0..76: Objective:: output_var;
array [1..19] of var int: Start:: output_array([1..19]) = [X_INTRODUCED_16_,X_INTRODUCED_17_,X_INTRODUCED_18_,X_INTRODUCED_19_,X_INTRODUCED_20_,X_INTRODUCED_21_,X_INTRODUCED_22_,X_INTRODUCED_23_,X_INTRODUCED_24_,X_INTRODUCED_25_,X_INTRODUCED_26_,X_INTRODUCED_27_,X_INTRODUCED_28_,X_INTRODUCED_29_,X_INTRODUCED_30_,X_INTRODUCED_31_,X_INTRODUCED_32_,X_INTRODUCED_33_,X_INTRODUCED_34_];
array [1..14] of var int: X_INTRODUCED_42_ ::var_is_introduced  = [X_INTRODUCED_16_,X_INTRODUCED_17_,X_INTRODUCED_18_,X_INTRODUCED_19_,X_INTRODUCED_20_,X_INTRODUCED_21_,X_INTRODUCED_22_,X_INTRODUCED_23_,X_INTRODUCED_24_,X_INTRODUCED_25_,X_INTRODUCED_26_,X_INTRODUCED_27_,X_INTRODUCED_28_,X_INTRODUCED_29_];
array [1..15] of var int: X_INTRODUCED_55_ ::var_is_introduced  = [X_INTRODUCED_16_,X_INTRODUCED_17_,X_INTRODUCED_18_,X_INTRODUCED_19_,X_INTRODUCED_20_,X_INTRODUCED_21_,X_INTRODUCED_22_,X_INTRODUCED_23_,X_INTRODUCED_24_,X_INTRODUCED_25_,X_INTRODUCED_26_,X_INTRODUCED_27_,X_INTRODUCED_28_,X_INTRODUCED_29_,Objective];
constraint int_lin_le(X_INTRODUCED_38_,[X_INTRODUCED_18_,X_INTRODUCED_20_],-2);
constraint int_lin_le(X_INTRODUCED_38_,[X_INTRODUCED_20_,X_INTRODUCED_21_],-2);
constraint pumpkin_cumulative(X_INTRODUCED_42_,X_INTRODUCED_41_,X_INTRODUCED_40_,5);
constraint pumpkin_cumulative(X_INTRODUCED_42_,X_INTRODUCED_41_,X_INTRODUCED_43_,9);
constraint pumpkin_cumulative(X_INTRODUCED_42_,X_INTRODUCED_41_,X_INTRODUCED_44_,8);
constraint int_lin_le(X_INTRODUCED_38_,[X_INTRODUCED_16_,Objective],-5);
constraint int_lin_le(X_INTRODUCED_38_,[X_INTRODUCED_17_,Objective],-2);
constraint int_lin_le(X_INTRODUCED_38_,[X_INTRODUCED_19_,Objective],-5);
constraint int_lin_le(X_INTRODUCED_38_,[X_INTRODUCED_21_,Objective],-3);
constraint int_lin_le(X_INTRODUCED_38_,[X_INTRODUCED_24_,Objective],-6);
constraint int_lin_le(X_INTRODUCED_38_,[X_INTRODUCED_25_,Objective],-6);
constraint int_lin_le(X_INTRODUCED_38_,[X_INTRODUCED_26_,Objective],-5);
constraint int_lin_le(X_INTRODUCED_38_,[X_INTRODUCED_27_,Objective],-3);
constraint int_lin_le(X_INTRODUCED_38_,[X_INTRODUCED_28_,Objective],-4);
constraint int_lin_le(X_INTRODUCED_38_,[X_INTRODUCED_29_,Objective],-3);
solve :: int_search(X_INTRODUCED_55_,smallest,indomain_min,complete) minimize Objective;
